GLPSOL: GLPK LP/MIP Solver, v4.65
Parameter(s) specified in the command line:
 -m helloworld.mod --log helloworld.log
Reading model section from helloworld.mod...
20 lines were read
Generating Con1...
Generating Con2...
Generating Con3...
Generating Sum...
Model has been successfully generated
GLPK Simplex Optimizer, v4.65
4 rows, 3 columns, 9 non-zeros
Preprocessing...
3 rows, 3 columns, 6 non-zeros
Scaling...
 A: min|aij| =  1.000e+00  max|aij| =  1.000e+00  ratio =  1.000e+00
Problem data seem to be well scaled
Constructing initial basis...
Size of triangular part is 3
*     0: obj =  -0.000000000e+00 inf =   0.000e+00 (3)
*     3: obj =   7.500000000e+00 inf =   0.000e+00 (0)
OPTIMAL LP SOLUTION FOUND
Time used:   0.0 secs
Memory used: 0.1 Mb (102283 bytes)
Optimal (max) sum is: 7.5.
x = 0.5
y = 2.5
z = 4.5
Model has been successfully processed
